set VV := 0 1 2 3 4 5 6 7 8 9 10 11 12 13 14 15 16 17 18 19 20 21 22 23 24 25 ;
set VS := 0 1 2 3 4 5 6 7 8 9 10 11 12 13 14 15 16 17 18 19 20 21 22 23 24 25 26 27 28 29 30 31 32 33 34 35 36 37 38 39 40 41 42 43 44 45 46 47 48 49 50 51 52 53 54 55 56 ;
param cv := 
0 18
1 22
2 18
3 11
4 10
5 25
6 21
7 12
8 23
9 17
10 18
11 25
12 10
13 16
14 19
15 18
16 21
17 23
18 14
19 11
20 13
21 12
22 14
23 14
24 13
25 12
;
param cs := 
0 35
1 30
2 25
3 21
4 20
5 40
6 38
7 29
8 20
9 33
10 27
11 26
12 23
13 26
14 27
15 21
16 38
17 33
18 40
19 38
20 25
21 32
22 27
23 37
24 33
25 28
26 30
27 36
28 25
29 20
30 28
31 32
32 20
33 33
34 32
35 40
36 29
37 24
38 33
39 24
40 21
41 29
42 28
43 36
44 27
45 31
46 40
47 39
48 27
49 26
50 26
51 31
52 29
53 30
54 22
55 30
56 31
;
param bv:	 0 1 2 3 4 5 6 7 8 9 10 11 12 13 14 15 16 17 18 19 20 21 22 23 24 25 := 
		0 0 0 0 0 0 0 0 0 0 20 0 0 0 0 0 0 0 0 0 0 0 0 0 0 0 16 
		1 0 0 0 0 0 0 0 0 0 21 0 0 0 0 0 0 0 0 0 0 0 0 0 0 22 0 
		2 0 0 0 0 0 0 0 22 0 0 0 0 0 0 0 0 0 0 0 0 0 0 0 0 0 0 
		3 0 0 0 0 0 0 18 0 0 0 0 24 25 0 0 0 0 11 0 0 0 0 0 0 0 0 
		4 0 0 0 0 0 0 17 0 0 0 18 0 0 0 0 0 0 0 0 0 0 0 0 0 0 0 
		5 0 0 0 0 0 0 0 11 0 0 0 0 0 0 0 0 12 0 15 0 0 0 0 0 0 0 
		6 0 0 0 0 0 0 0 0 0 0 0 0 0 0 0 0 0 17 0 0 0 0 0 0 24 13 
		7 0 0 0 0 0 0 0 0 10 0 0 22 0 0 0 0 0 12 0 0 0 0 0 0 0 0 
		8 0 0 0 0 0 0 0 0 0 10 0 0 0 0 0 0 15 0 0 0 0 0 0 0 0 0 
		9 0 0 0 0 0 0 0 0 0 0 0 0 0 0 0 0 0 0 0 0 0 0 0 0 0 0 
		10 0 0 0 0 0 0 0 0 0 0 0 0 0 0 0 0 0 0 0 0 0 0 0 0 0 0 
		11 0 0 0 0 0 0 0 0 0 0 0 0 0 0 0 0 0 0 0 0 11 0 0 0 15 0 
		12 0 0 0 0 0 0 0 0 0 0 0 0 0 0 0 0 0 0 0 19 0 12 0 0 0 24 
		13 0 0 0 0 0 0 0 0 0 0 0 0 0 0 23 0 0 0 0 0 0 0 0 0 0 0 
		14 0 0 0 0 0 0 0 0 0 0 0 0 0 0 0 0 0 24 0 23 0 0 0 0 0 0 
		15 0 0 0 0 0 0 0 0 0 0 0 0 0 0 0 0 25 0 0 0 0 0 0 0 0 0 
		16 0 0 0 0 0 0 0 0 0 0 0 0 0 0 0 0 0 0 0 0 0 0 0 0 0 0 
		17 0 0 0 0 0 0 0 0 0 0 0 0 0 0 0 0 0 0 0 0 0 0 22 0 0 0 
		18 0 0 0 0 0 0 0 0 0 0 0 0 0 0 0 0 0 0 0 0 0 0 0 0 20 0 
		19 0 0 0 0 0 0 0 0 0 0 0 0 0 0 0 0 0 0 0 0 16 0 0 0 0 20 
		20 0 0 0 0 0 0 0 0 0 0 0 0 0 0 0 0 0 0 0 0 0 0 24 0 0 0 
		21 0 0 0 0 0 0 0 0 0 0 0 0 0 0 0 0 0 0 0 0 0 0 0 0 0 0 
		22 0 0 0 0 0 0 0 0 0 0 0 0 0 0 0 0 0 0 0 0 0 0 0 0 0 25 
		23 0 0 0 0 0 0 0 0 0 0 0 0 0 0 0 0 0 0 0 0 0 0 0 0 0 18 
		24 0 0 0 0 0 0 0 0 0 0 0 0 0 0 0 0 0 0 0 0 0 0 0 0 0 0 
		25 0 0 0 0 0 0 0 0 0 0 0 0 0 0 0 0 0 0 0 0 0 0 0 0 0 0 
;
param bs:	 0 1 2 3 4 5 6 7 8 9 10 11 12 13 14 15 16 17 18 19 20 21 22 23 24 25 26 27 28 29 30 31 32 33 34 35 36 37 38 39 40 41 42 43 44 45 46 47 48 49 50 51 52 53 54 55 56 := 
		0 0 0 0 0 0 0 0 0 0 0 0 0 0 0 0 0 0 0 0 0 0 0 0 24 0 0 0 0 0 32 0 0 0 0 0 0 0 0 0 39 32 0 0 0 0 0 0 0 0 0 0 0 0 0 0 0 0 
		1 0 0 25 0 0 0 0 0 0 0 27 0 0 0 28 27 25 20 0 0 30 0 0 0 0 0 0 0 36 0 0 0 0 0 0 0 0 33 0 0 0 0 0 0 0 0 0 0 0 0 0 0 0 0 0 0 0 
		2 0 25 0 0 0 0 0 0 0 0 0 0 0 0 0 0 0 0 0 0 0 0 40 39 0 31 0 0 0 0 0 24 0 0 0 0 0 0 21 0 0 0 0 0 35 0 0 0 28 0 0 0 0 35 35 0 0 
		3 0 0 0 0 0 0 0 0 0 0 0 0 0 0 0 0 0 0 0 33 0 0 0 0 0 0 0 0 0 0 27 0 0 0 0 0 30 0 31 0 0 0 0 0 0 0 0 0 0 0 0 0 0 0 38 0 0 
		4 0 0 0 0 0 0 21 0 0 0 0 0 29 0 20 20 0 36 20 31 0 0 0 0 0 0 0 22 0 0 0 0 0 0 0 0 0 0 0 0 0 0 0 0 0 0 0 29 33 0 0 25 0 0 0 0 0 
		5 0 0 0 0 0 0 0 0 0 0 0 0 34 0 0 0 0 0 0 0 0 0 0 0 0 0 0 0 0 0 0 0 0 0 0 0 0 0 0 0 0 0 0 0 0 0 0 0 0 0 0 0 21 0 0 0 0 
		6 0 0 0 0 21 0 0 0 0 36 0 0 0 0 0 0 27 38 0 0 0 0 0 0 0 0 0 0 0 0 0 0 36 0 32 40 35 0 0 0 0 0 0 0 0 0 0 0 26 0 0 0 0 0 0 0 26 
		7 0 0 0 0 0 0 0 0 0 0 0 0 27 0 0 20 0 35 0 0 0 27 0 0 29 0 0 0 29 39 0 0 0 0 0 0 0 0 0 0 0 0 0 0 0 0 0 0 0 0 0 0 0 0 31 0 0 
		8 0 0 0 0 0 0 0 0 0 29 0 0 0 0 0 0 0 0 0 0 0 31 0 0 0 0 0 0 0 40 0 0 0 0 28 39 0 0 0 37 0 0 0 0 0 0 26 0 38 0 0 0 0 0 0 0 0 
		9 0 0 0 0 0 0 36 0 29 0 0 0 0 0 0 0 38 33 0 0 0 0 26 0 0 0 0 0 0 0 0 38 0 31 0 0 0 25 0 0 25 0 0 35 0 0 39 0 0 0 0 0 0 25 21 0 0 
		10 0 27 0 0 0 0 0 0 0 0 0 0 0 0 0 0 0 0 0 0 0 0 0 0 0 0 0 0 36 32 0 0 30 0 36 0 0 0 0 27 0 0 0 0 0 0 32 0 0 0 0 0 0 0 0 0 0 
		11 0 0 0 0 0 0 0 0 0 0 0 0 0 0 0 0 25 0 0 0 0 0 0 0 0 25 0 0 0 0 0 0 0 0 0 0 0 0 0 0 0 0 0 0 0 0 0 0 0 0 0 0 0 27 0 0 0 
		12 0 0 0 0 29 34 0 27 0 0 0 0 0 29 0 0 0 24 0 0 0 0 0 31 0 0 0 0 23 0 0 0 0 0 0 0 0 0 34 0 0 0 0 0 0 0 0 0 22 0 0 0 0 0 0 0 0 
		13 0 0 0 0 0 0 0 0 0 0 0 0 29 0 31 0 0 0 0 0 0 0 0 0 0 0 0 0 0 0 0 0 0 0 0 0 0 0 21 0 0 0 0 0 0 0 0 0 0 0 0 0 0 0 0 0 0 
		14 0 28 0 0 20 0 0 0 0 0 0 0 0 31 0 0 0 0 0 0 0 0 0 0 0 0 0 0 0 0 0 0 0 0 40 0 0 0 40 23 0 0 0 0 0 0 23 0 0 0 0 0 0 0 0 0 33 
		15 0 27 0 0 20 0 0 20 0 0 0 0 0 0 0 0 32 0 0 0 0 31 0 0 0 0 0 0 0 30 0 0 0 0 0 0 0 0 0 0 0 0 0 0 20 0 0 0 0 0 0 0 0 0 0 0 0 
		16 0 25 0 0 0 0 27 0 0 38 0 25 0 0 0 32 0 0 0 0 0 0 0 0 0 0 0 0 0 0 0 0 0 0 0 0 0 34 0 0 0 0 0 0 0 0 0 0 0 0 0 39 0 33 26 0 0 
		17 0 20 0 0 36 0 38 35 0 33 0 0 24 0 0 0 0 0 0 0 0 0 0 0 0 0 25 0 0 39 0 0 0 0 0 0 0 0 0 0 0 0 0 20 0 0 24 0 33 0 0 0 0 0 0 0 0 
		18 0 0 0 0 20 0 0 0 0 0 0 0 0 0 0 0 0 0 0 0 0 0 0 0 35 0 0 28 0 39 0 30 0 0 0 32 0 0 0 0 0 0 0 0 0 0 0 20 0 0 0 0 0 0 0 0 0 
		19 0 0 0 33 31 0 0 0 0 0 0 0 0 0 0 0 0 0 0 0 0 0 0 0 21 0 0 0 0 36 0 0 0 0 0 0 0 0 0 38 31 0 0 0 0 0 0 0 0 30 0 0 0 0 0 0 0 
		20 0 30 0 0 0 0 0 0 0 0 0 0 0 0 0 0 0 0 0 0 0 0 0 0 0 0 0 0 0 0 0 0 25 0 0 0 0 0 38 0 0 0 0 0 0 0 0 0 0 0 0 0 0 0 39 0 0 
		21 0 0 0 0 0 0 0 27 31 0 0 0 0 0 0 31 0 0 0 0 0 0 0 0 24 0 0 0 36 0 0 0 0 0 0 0 0 0 0 0 0 0 0 0 0 0 24 0 0 0 0 0 0 0 0 0 0 
		22 0 0 40 0 0 0 0 0 0 26 0 0 0 0 0 0 0 0 0 0 0 0 0 0 0 0 0 0 0 0 0 0 36 30 0 0 0 0 24 0 0 30 31 0 0 0 25 0 0 0 0 0 0 0 0 0 0 
		23 24 0 39 0 0 0 0 0 0 0 0 0 31 0 0 0 0 0 0 0 0 0 0 0 0 0 24 0 0 0 0 0 0 0 0 0 0 0 0 0 0 0 0 0 0 26 0 0 0 0 0 0 0 0 0 0 0 
		24 0 0 0 0 0 0 0 29 0 0 0 0 0 0 0 0 0 0 35 21 0 24 0 0 0 0 0 0 0 0 0 0 0 0 33 0 21 0 0 0 0 0 0 0 0 0 0 0 0 23 0 0 0 0 0 30 0 
		25 0 0 31 0 0 0 0 0 0 0 0 25 0 0 0 0 0 0 0 0 0 0 0 0 0 0 21 0 0 35 0 39 0 0 0 0 0 0 0 0 0 0 0 0 0 0 27 37 0 20 0 0 0 0 0 0 0 
		26 0 0 0 0 0 0 0 0 0 0 0 0 0 0 0 0 0 25 0 0 0 0 0 24 0 21 0 0 0 0 0 0 0 0 0 0 0 0 0 0 0 0 0 0 0 0 0 0 0 0 0 0 0 0 0 0 0 
		27 0 0 0 0 22 0 0 0 0 0 0 0 0 0 0 0 0 0 28 0 0 0 0 0 0 0 0 0 0 0 0 0 0 0 0 0 0 0 0 0 31 0 0 0 0 26 0 0 0 0 0 0 0 0 0 0 0 
		28 0 36 0 0 0 0 0 29 0 0 36 0 23 0 0 0 0 0 0 0 0 36 0 0 0 0 0 0 0 0 0 0 0 0 0 0 0 0 0 0 0 0 0 0 34 0 0 0 0 0 0 0 0 0 0 0 0 
		29 32 0 0 0 0 0 0 39 40 0 32 0 0 0 0 30 0 39 39 36 0 0 0 0 0 35 0 0 0 0 31 0 0 0 0 0 0 0 0 0 0 0 0 0 0 0 0 0 27 0 0 0 0 0 0 0 0 
		30 0 0 0 27 0 0 0 0 0 0 0 0 0 0 0 0 0 0 0 0 0 0 0 0 0 0 0 0 0 31 0 0 0 0 27 0 0 37 0 35 25 0 0 0 0 0 21 0 0 0 0 0 0 0 0 0 0 
		31 0 0 24 0 0 0 0 0 0 38 0 0 0 0 0 0 0 0 30 0 0 0 0 0 0 39 0 0 0 0 0 0 0 0 0 0 0 0 0 0 0 0 0 0 0 27 0 0 0 23 0 0 0 0 0 20 0 
		32 0 0 0 0 0 0 36 0 0 0 30 0 0 0 0 0 0 0 0 0 25 0 36 0 0 0 0 0 0 0 0 0 0 0 0 0 0 27 0 0 0 0 0 0 0 0 0 0 0 0 0 37 27 26 27 0 0 
		33 0 0 0 0 0 0 0 0 0 31 0 0 0 0 0 0 0 0 0 0 0 0 30 0 0 0 0 0 0 0 0 0 0 0 0 0 0 0 0 0 0 0 0 37 39 0 0 0 0 0 0 26 40 0 0 0 0 
		34 0 0 0 0 0 0 32 0 28 0 36 0 0 0 40 0 0 0 0 0 0 0 0 0 33 0 0 0 0 0 27 0 0 0 0 0 0 0 0 0 0 0 0 0 0 0 0 0 23 30 0 0 0 0 0 0 0 
		35 0 0 0 0 0 0 40 0 39 0 0 0 0 0 0 0 0 0 32 0 0 0 0 0 0 0 0 0 0 0 0 0 0 0 0 0 0 0 28 0 0 27 0 0 0 0 0 0 0 0 0 0 0 0 0 0 0 
		36 0 0 0 30 0 0 35 0 0 0 0 0 0 0 0 0 0 0 0 0 0 0 0 0 21 0 0 0 0 0 0 0 0 0 0 0 0 0 0 0 31 0 0 0 0 0 0 0 26 0 0 0 0 0 0 0 0 
		37 0 33 0 0 0 0 0 0 0 25 0 0 0 0 0 0 34 0 0 0 0 0 0 0 0 0 0 0 0 0 37 0 27 0 0 0 0 0 0 0 0 0 0 0 0 33 0 0 0 0 0 23 0 32 0 0 0 
		38 0 0 21 31 0 0 0 0 0 0 0 0 34 21 40 0 0 0 0 0 38 0 24 0 0 0 0 0 0 0 0 0 0 0 0 28 0 0 0 36 24 0 0 35 0 0 40 0 32 0 0 0 0 0 0 0 0 
		39 39 0 0 0 0 0 0 0 37 0 27 0 0 0 23 0 0 0 0 38 0 0 0 0 0 0 0 0 0 0 35 0 0 0 0 0 0 0 36 0 0 0 0 0 0 0 0 0 0 0 0 33 0 0 0 0 0 
		40 32 0 0 0 0 0 0 0 0 25 0 0 0 0 0 0 0 0 0 31 0 0 0 0 0 0 0 31 0 0 25 0 0 0 0 0 31 0 24 0 0 0 0 0 0 0 0 0 30 0 29 0 0 0 0 0 0 
		41 0 0 0 0 0 0 0 0 0 0 0 0 0 0 0 0 0 0 0 0 0 0 30 0 0 0 0 0 0 0 0 0 0 0 0 27 0 0 0 0 0 0 0 0 0 0 0 29 0 0 0 0 0 0 0 0 0 
		42 0 0 0 0 0 0 0 0 0 0 0 0 0 0 0 0 0 0 0 0 0 0 31 0 0 0 0 0 0 0 0 0 0 0 0 0 0 0 0 0 0 0 0 0 0 0 0 0 0 0 0 0 0 26 0 0 0 
		43 0 0 0 0 0 0 0 0 0 35 0 0 0 0 0 0 0 20 0 0 0 0 0 0 0 0 0 0 0 0 0 0 0 37 0 0 0 0 35 0 0 0 0 0 0 0 0 0 0 0 0 0 0 0 0 0 0 
		44 0 0 35 0 0 0 0 0 0 0 0 0 0 0 0 20 0 0 0 0 0 0 0 0 0 0 0 0 34 0 0 0 0 39 0 0 0 0 0 0 0 0 0 0 0 0 0 0 36 0 0 0 0 0 0 32 0 
		45 0 0 0 0 0 0 0 0 0 0 0 0 0 0 0 0 0 0 0 0 0 0 0 26 0 0 0 26 0 0 0 27 0 0 0 0 0 33 0 0 0 0 0 0 0 0 37 0 0 0 0 0 0 0 0 0 32 
		46 0 0 0 0 0 0 0 0 26 39 32 0 0 0 23 0 0 24 0 0 0 24 25 0 0 27 0 0 0 0 21 0 0 0 0 0 0 0 40 0 0 0 0 0 0 37 0 0 22 0 33 0 0 22 0 0 0 
		47 0 0 0 0 29 0 0 0 0 0 0 0 0 0 0 0 0 0 20 0 0 0 0 0 0 37 0 0 0 0 0 0 0 0 0 0 0 0 0 0 0 29 0 0 0 0 0 0 0 0 0 0 0 0 0 0 0 
		48 0 0 28 0 33 0 26 0 38 0 0 0 22 0 0 0 0 33 0 0 0 0 0 0 0 0 0 0 0 27 0 0 0 0 23 0 26 0 32 0 30 0 0 0 36 0 22 0 0 0 0 0 0 0 0 0 27 
		49 0 0 0 0 0 0 0 0 0 0 0 0 0 0 0 0 0 0 0 30 0 0 0 0 23 20 0 0 0 0 0 23 0 0 30 0 0 0 0 0 0 0 0 0 0 0 0 0 0 0 0 0 0 0 0 0 0 
		50 0 0 0 0 0 0 0 0 0 0 0 0 0 0 0 0 0 0 0 0 0 0 0 0 0 0 0 0 0 0 0 0 0 0 0 0 0 0 0 0 29 0 0 0 0 0 33 0 0 0 0 0 0 0 0 0 0 
		51 0 0 0 0 25 0 0 0 0 0 0 0 0 0 0 0 39 0 0 0 0 0 0 0 0 0 0 0 0 0 0 0 37 26 0 0 0 23 0 33 0 0 0 0 0 0 0 0 0 0 0 0 0 0 0 0 0 
		52 0 0 0 0 0 21 0 0 0 0 0 0 0 0 0 0 0 0 0 0 0 0 0 0 0 0 0 0 0 0 0 0 27 40 0 0 0 0 0 0 0 0 0 0 0 0 0 0 0 0 0 0 0 0 38 0 0 
		53 0 0 35 0 0 0 0 0 0 25 0 27 0 0 0 0 33 0 0 0 0 0 0 0 0 0 0 0 0 0 0 0 26 0 0 0 0 32 0 0 0 0 26 0 0 0 22 0 0 0 0 0 0 0 0 33 0 
		54 0 0 35 38 0 0 0 31 0 21 0 0 0 0 0 0 26 0 0 0 39 0 0 0 0 0 0 0 0 0 0 0 27 0 0 0 0 0 0 0 0 0 0 0 0 0 0 0 0 0 0 0 38 0 0 0 0 
		55 0 0 0 0 0 0 0 0 0 0 0 0 0 0 0 0 0 0 0 0 0 0 0 0 30 0 0 0 0 0 0 20 0 0 0 0 0 0 0 0 0 0 0 0 32 0 0 0 0 0 0 0 0 33 0 0 0 
		56 0 0 0 0 0 0 26 0 0 0 0 0 0 0 33 0 0 0 0 0 0 0 0 0 0 0 0 0 0 0 0 0 0 0 0 0 0 0 0 0 0 0 0 0 0 32 0 0 27 0 0 0 0 0 0 0 0 
;
